robust/generate/spp_dkp_Lefebvre_et_al_2026/src/shortest_path_4_6.kp
48
83

[0.15 7.4 2.36 2.48 6.57 2.69 7.18 3.71 4.55 2.96]

[51 25 23 10 33 67 78 75 83 33]
