robust/generate/spp_dkp_Lefebvre_et_al_2026/src/shortest_path_4_6.lp
\ Model sp_4_6
\ LP format - for model browsing. Use MPS format to capture full model detail.
\ Signature: 0xdf8e95fb0fdc88e3
Minimize
  62.27 y[0,1] + 35 y[0,2] + 68.88 y[0,3] + 62.27 y[1,0] + 37.2 y[1,3]
   + 35 y[2,0] + 62.43 y[2,3] + 68.88 y[3,0] + 37.2 y[3,1] + 62.43 y[3,2]
   + 6.227 r[0,1] + 3.5 r[0,2] + 6.888 r[0,3] + 6.227 r[1,0] + 3.72 r[1,3]
   + 3.5 r[2,0] + 6.243 r[2,3] + 6.888 r[3,0] + 3.72 r[3,1] + 6.243 r[3,2]
Subject To
 flow_cons_inner_nodes[0]: - y[0,1] - y[0,2] - y[0,3] + y[1,0] + y[2,0]
   + y[3,0] = 0
 flow_cons_inner_nodes[3]: y[0,3] + y[1,3] + y[2,3] - y[3,0] - y[3,1]
   - y[3,2] = 0
 flow_cons_source: - y[0,1] + y[1,0] + y[1,3] - y[3,1] = 1
 flow_cons_target: y[0,2] - y[2,0] - y[2,3] + y[3,2] = 1
 primal_lower: - 0.15 y[0,1] - 7.4 y[0,2] - 2.36 y[0,3] - 2.48 y[1,0]
   - 6.57 y[1,3] - 2.69 y[2,0] - 7.18 y[2,3] - 3.71 y[3,0] - 4.55 y[3,1]
   - 2.96 y[3,2] + 51 u[0,1] + 25 u[0,2] + 23 u[0,3] + 10 u[1,0]
   + 33 u[1,3] + 67 u[2,0] + 78 u[2,3] + 75 u[3,0] + 83 u[3,1] + 33 u[3,2]
   <= 83
 mccormick1[0,1]: - u[0,1] + r[0,1] <= 0
 mccormick1[0,2]: - u[0,2] + r[0,2] <= 0
 mccormick1[0,3]: - u[0,3] + r[0,3] <= 0
 mccormick1[1,0]: - u[1,0] + r[1,0] <= 0
 mccormick1[1,3]: - u[1,3] + r[1,3] <= 0
 mccormick1[2,0]: - u[2,0] + r[2,0] <= 0
 mccormick1[2,3]: - u[2,3] + r[2,3] <= 0
 mccormick1[3,0]: - u[3,0] + r[3,0] <= 0
 mccormick1[3,1]: - u[3,1] + r[3,1] <= 0
 mccormick1[3,2]: - u[3,2] + r[3,2] <= 0
 mccormick2[0,1]: - y[0,1] + r[0,1] <= 0
 mccormick2[0,2]: - y[0,2] + r[0,2] <= 0
 mccormick2[0,3]: - y[0,3] + r[0,3] <= 0
 mccormick2[1,0]: - y[1,0] + r[1,0] <= 0
 mccormick2[1,3]: - y[1,3] + r[1,3] <= 0
 mccormick2[2,0]: - y[2,0] + r[2,0] <= 0
 mccormick2[2,3]: - y[2,3] + r[2,3] <= 0
 mccormick2[3,0]: - y[3,0] + r[3,0] <= 0
 mccormick2[3,1]: - y[3,1] + r[3,1] <= 0
 mccormick2[3,2]: - y[3,2] + r[3,2] <= 0
 mccormick3[0,1]: - y[0,1] - u[0,1] + r[0,1] >= -1
 mccormick3[0,2]: - y[0,2] - u[0,2] + r[0,2] >= -1
 mccormick3[0,3]: - y[0,3] - u[0,3] + r[0,3] >= -1
 mccormick3[1,0]: - y[1,0] - u[1,0] + r[1,0] >= -1
 mccormick3[1,3]: - y[1,3] - u[1,3] + r[1,3] >= -1
 mccormick3[2,0]: - y[2,0] - u[2,0] + r[2,0] >= -1
 mccormick3[2,3]: - y[2,3] - u[2,3] + r[2,3] >= -1
 mccormick3[3,0]: - y[3,0] - u[3,0] + r[3,0] >= -1
 mccormick3[3,1]: - y[3,1] - u[3,1] + r[3,1] >= -1
 mccormick3[3,2]: - y[3,2] - u[3,2] + r[3,2] >= -1
Bounds
Binaries
 y[0,1] y[0,2] y[0,3] y[1,0] y[1,3] y[2,0] y[2,3] y[3,0] y[3,1] y[3,2]
 u[0,1] u[0,2] u[0,3] u[1,0] u[1,3] u[2,0] u[2,3] u[3,0] u[3,1] u[3,2]
 r[0,1] r[0,2] r[0,3] r[1,0] r[1,3] r[2,0] r[2,3] r[3,0] r[3,1] r[3,2]
End
